* #variable= 47 #constraint= 104
****************************************
min: +10 x24 +10 x25 +10 x26 +10 x27 +10 x28 +10 x29 +10 x30 +10 x31 +10 x32 +10 x33 +10 x34 +10 x35 +10 x36 +10 x37 +10 x38 +10 x39 +1 x40 +1 x41 +1 x42 +1 x43 +1 x44 +1 x45 +1 x46 ;
+1 x0 +1 x1 +1 x4 +1 x5 +1 x24 >= 1 ;
-1 x0 +1 x1 -1 x4 +1 x5 +1 x24 >= -1 ;
+1 x0 -1 x1 +1 x4 -1 x5 +1 x24 >= -1 ;
-1 x0 -1 x1 -1 x4 -1 x5 +1 x24 >= -3 ;
+1 x0 +1 x1 +1 x10 +1 x11 +1 x25 >= 1 ;
-1 x0 +1 x1 -1 x10 +1 x11 +1 x25 >= -1 ;
+1 x0 -1 x1 +1 x10 -1 x11 +1 x25 >= -1 ;
-1 x0 -1 x1 -1 x10 -1 x11 +1 x25 >= -3 ;
+1 x0 -1 x2 -1 x40 <= 0 ;
-1 x0 +1 x2 -1 x40 <= 0 ;
+1 x1 -1 x3 -1 x40 <= 0 ;
-1 x1 +1 x3 -1 x40 <= 0 ;
+1 x2 +1 x3 +1 x16 +1 x17 +1 x26 >= 1 ;
-1 x2 +1 x3 -1 x16 +1 x17 +1 x26 >= -1 ;
+1 x2 -1 x3 +1 x16 -1 x17 +1 x26 >= -1 ;
-1 x2 -1 x3 -1 x16 -1 x17 +1 x26 >= -3 ;
+1 x2 +1 x3 +1 x18 +1 x19 +1 x26 >= 1 ;
-1 x2 +1 x3 -1 x18 +1 x19 +1 x26 >= -1 ;
+1 x2 -1 x3 +1 x18 -1 x19 +1 x26 >= -1 ;
-1 x2 -1 x3 -1 x18 -1 x19 +1 x26 >= -3 ;
+1 x2 +1 x3 +1 x22 +1 x23 +1 x27 >= 1 ;
-1 x2 +1 x3 -1 x22 +1 x23 +1 x27 >= -1 ;
+1 x2 -1 x3 +1 x22 -1 x23 +1 x27 >= -1 ;
-1 x2 -1 x3 -1 x22 -1 x23 +1 x27 >= -3 ;
+1 x4 +1 x5 +1 x10 +1 x11 +1 x29 >= 1 ;
-1 x4 +1 x5 -1 x10 +1 x11 +1 x29 >= -1 ;
+1 x4 -1 x5 +1 x10 -1 x11 +1 x29 >= -1 ;
-1 x4 -1 x5 -1 x10 -1 x11 +1 x29 >= -3 ;
+1 x4 +1 x5 +1 x12 +1 x13 +1 x29 >= 1 ;
-1 x4 +1 x5 -1 x12 +1 x13 +1 x29 >= -1 ;
+1 x4 -1 x5 +1 x12 -1 x13 +1 x29 >= -1 ;
-1 x4 -1 x5 -1 x12 -1 x13 +1 x29 >= -3 ;
+1 x4 -1 x6 -1 x41 <= 0 ;
-1 x4 +1 x6 -1 x41 <= 0 ;
+1 x5 -1 x7 -1 x41 <= 0 ;
-1 x5 +1 x7 -1 x41 <= 0 ;
+1 x6 +1 x7 +1 x10 +1 x11 +1 x29 >= 1 ;
-1 x6 +1 x7 -1 x10 +1 x11 +1 x29 >= -1 ;
+1 x6 -1 x7 +1 x10 -1 x11 +1 x29 >= -1 ;
-1 x6 -1 x7 -1 x10 -1 x11 +1 x29 >= -3 ;
+1 x6 +1 x7 +1 x12 +1 x13 +1 x29 >= 1 ;
-1 x6 +1 x7 -1 x12 +1 x13 +1 x29 >= -1 ;
+1 x6 -1 x7 +1 x12 -1 x13 +1 x29 >= -1 ;
-1 x6 -1 x7 -1 x12 -1 x13 +1 x29 >= -3 ;
+1 x6 -1 x8 -1 x42 <= 0 ;
-1 x6 +1 x8 -1 x42 <= 0 ;
+1 x7 -1 x9 -1 x42 <= 0 ;
-1 x7 +1 x9 -1 x42 <= 0 ;
+1 x8 +1 x9 +1 x20 +1 x21 +1 x30 >= 1 ;
-1 x8 +1 x9 -1 x20 +1 x21 +1 x30 >= -1 ;
+1 x8 -1 x9 +1 x20 -1 x21 +1 x30 >= -1 ;
-1 x8 -1 x9 -1 x20 -1 x21 +1 x30 >= -3 ;
+1 x10 +1 x11 +1 x14 +1 x15 +1 x33 >= 1 ;
-1 x10 +1 x11 -1 x14 +1 x15 +1 x33 >= -1 ;
+1 x10 -1 x11 +1 x14 -1 x15 +1 x33 >= -1 ;
-1 x10 -1 x11 -1 x14 -1 x15 +1 x33 >= -3 ;
+1 x10 +1 x11 +1 x16 +1 x17 +1 x33 >= 1 ;
-1 x10 +1 x11 -1 x16 +1 x17 +1 x33 >= -1 ;
+1 x10 -1 x11 +1 x16 -1 x17 +1 x33 >= -1 ;
-1 x10 -1 x11 -1 x16 -1 x17 +1 x33 >= -3 ;
+1 x10 -1 x12 -1 x43 <= 0 ;
-1 x10 +1 x12 -1 x43 <= 0 ;
+1 x11 -1 x13 -1 x43 <= 0 ;
-1 x11 +1 x13 -1 x43 <= 0 ;
+1 x12 +1 x13 +1 x14 +1 x15 +1 x33 >= 1 ;
-1 x12 +1 x13 -1 x14 +1 x15 +1 x33 >= -1 ;
+1 x12 -1 x13 +1 x14 -1 x15 +1 x33 >= -1 ;
-1 x12 -1 x13 -1 x14 -1 x15 +1 x33 >= -3 ;
+1 x12 +1 x13 +1 x16 +1 x17 +1 x33 >= 1 ;
-1 x12 +1 x13 -1 x16 +1 x17 +1 x33 >= -1 ;
+1 x12 -1 x13 +1 x16 -1 x17 +1 x33 >= -1 ;
-1 x12 -1 x13 -1 x16 -1 x17 +1 x33 >= -3 ;
+1 x14 -1 x16 -1 x44 <= 0 ;
-1 x14 +1 x16 -1 x44 <= 0 ;
+1 x15 -1 x17 -1 x44 <= 0 ;
-1 x15 +1 x17 -1 x44 <= 0 ;
+1 x16 +1 x17 +1 x22 +1 x23 +1 x36 >= 1 ;
-1 x16 +1 x17 -1 x22 +1 x23 +1 x36 >= -1 ;
+1 x16 -1 x17 +1 x22 -1 x23 +1 x36 >= -1 ;
-1 x16 -1 x17 -1 x22 -1 x23 +1 x36 >= -3 ;
+1 x16 -1 x18 -1 x45 <= 0 ;
-1 x16 +1 x18 -1 x45 <= 0 ;
+1 x17 -1 x19 -1 x45 <= 0 ;
-1 x17 +1 x19 -1 x45 <= 0 ;
+1 x18 +1 x19 +1 x22 +1 x23 +1 x36 >= 1 ;
-1 x18 +1 x19 -1 x22 +1 x23 +1 x36 >= -1 ;
+1 x18 -1 x19 +1 x22 -1 x23 +1 x36 >= -1 ;
-1 x18 -1 x19 -1 x22 -1 x23 +1 x36 >= -3 ;
+1 x18 -1 x20 -1 x46 <= 0 ;
-1 x18 +1 x20 -1 x46 <= 0 ;
+1 x19 -1 x21 -1 x46 <= 0 ;
-1 x19 +1 x21 -1 x46 <= 0 ;
+1 x0 +1 x1 <= 1 ;
+1 x2 +1 x3 <= 1 ;
+1 x4 +1 x5 <= 1 ;
+1 x6 +1 x7 <= 1 ;
+1 x8 +1 x9 <= 1 ;
+1 x10 +1 x11 <= 1 ;
+1 x12 +1 x13 <= 1 ;
+1 x14 +1 x15 <= 1 ;
+1 x16 +1 x17 <= 1 ;
+1 x18 +1 x19 <= 1 ;
+1 x20 +1 x21 <= 1 ;
+1 x22 +1 x23 <= 1 ;
